(set-logic QF_S)
(declare-fun var_0xINPUT_209341 () String)
(assert (and (= (len var_0xINPUT_209341) 0) (= (len var_0xINPUT_209341) 0) (not (= var_0xINPUT_209341 "Example:")) (= (len var_0xINPUT_209341) 0) (not (= var_0xINPUT_209341 "CQALcCP5TB"))))
(check-sat var_0xINPUT_209341)